NAME 
ROWS
 N  OBJ
 G  R0      
 G  R1      
 G  R2      
 G  R3      
 G  R4      
 G  R5      
 G  R6      
 G  R7      
 G  R8      
 G  R9      
 G  R10     
 G  R11     
 G  R12     
 G  R13     
 G  R14     
 G  R15     
 G  R16     
 G  R17     
 G  R18     
 G  R19     
 G  R20     
 G  R21     
 G  R22     
 G  R23     
 G  R24     
 G  R25     
 G  R26     
 G  R27     
 G  R28     
 G  R29     
 G  R30     
 G  R31     
 G  R32     
 G  R33     
 G  R34     
 G  R35     
 G  R36     
 G  R37     
 G  R38     
 G  R39     
 G  R40     
 G  R41     
 G  R42     
 G  R43     
 G  R44     
 G  R45     
 G  R46     
 G  R47     
 G  R48     
 G  R49     
 G  R50     
 G  R51     
 G  R52     
 G  R53     
 G  R54     
 G  R55     
 G  R56     
 G  R57     
 G  R58     
 G  R59     
 G  R60     
 G  R61     
 G  R62     
 G  R63     
 G  R64     
 G  R65     
 G  R66     
 G  R67     
 G  R68     
 G  R69     
 G  R70     
 G  R71     
 G  R72     
 G  R73     
 G  R74     
 G  R75     
 G  R76     
 G  R77     
 G  R78     
 G  R79     
 G  R80     
 G  R81     
 G  R82     
 G  R83     
 G  R84     
 G  R85     
 G  R86     
 G  R87     
 G  R88     
 G  R89     
 G  R90     
 G  R91     
 G  R92     
 G  R93     
 G  R94     
 G  R95     
 G  R96     
 G  R97     
 G  R98     
 G  R99     
 G  R100    
 G  R101    
 G  R102    
 G  R103    
 G  R104    
 G  R105    
 G  R106    
 G  R107    
 G  R108    
 G  R109    
 G  R110    
 G  R111    
 G  R112    
 G  R113    
 G  R114    
 G  R115    
 G  R116    
 G  R117    
 G  R118    
 G  R119    
 G  R120    
 G  R121    
 G  R122    
 G  R123    
 G  R124    
 G  R125    
 G  R126    
 G  R127    
COLUMNS
    x0        OBJ       1
    x0        R0        1
    x0        R1        1
    x0        R2        1
    x0        R4        1
    x0        R8        1
    x0        R16       1
    x0        R32       1
    x0        R64       1
    x1        OBJ       1
    x1        R0        1
    x1        R1        1
    x1        R3        1
    x1        R5        1
    x1        R9        1
    x1        R17       1
    x1        R33       1
    x1        R65       1
    x2        OBJ       1
    x2        R0        1
    x2        R2        1
    x2        R3        1
    x2        R6        1
    x2        R10       1
    x2        R18       1
    x2        R34       1
    x2        R66       1
    x3        OBJ       1
    x3        R1        1
    x3        R2        1
    x3        R3        1
    x3        R7        1
    x3        R11       1
    x3        R19       1
    x3        R35       1
    x3        R67       1
    x4        OBJ       1
    x4        R0        1
    x4        R4        1
    x4        R5        1
    x4        R6        1
    x4        R12       1
    x4        R20       1
    x4        R36       1
    x4        R68       1
    x5        OBJ       1
    x5        R1        1
    x5        R4        1
    x5        R5        1
    x5        R7        1
    x5        R13       1
    x5        R21       1
    x5        R37       1
    x5        R69       1
    x6        OBJ       1
    x6        R2        1
    x6        R4        1
    x6        R6        1
    x6        R7        1
    x6        R14       1
    x6        R22       1
    x6        R38       1
    x6        R70       1
    x7        OBJ       1
    x7        R3        1
    x7        R5        1
    x7        R6        1
    x7        R7        1
    x7        R15       1
    x7        R23       1
    x7        R39       1
    x7        R71       1
    x8        OBJ       1
    x8        R0        1
    x8        R8        1
    x8        R9        1
    x8        R10       1
    x8        R12       1
    x8        R24       1
    x8        R40       1
    x8        R72       1
    x9        OBJ       1
    x9        R1        1
    x9        R8        1
    x9        R9        1
    x9        R11       1
    x9        R13       1
    x9        R25       1
    x9        R41       1
    x9        R73       1
    x10       OBJ       1
    x10       R2        1
    x10       R8        1
    x10       R10       1
    x10       R11       1
    x10       R14       1
    x10       R26       1
    x10       R42       1
    x10       R74       1
    x11       OBJ       1
    x11       R3        1
    x11       R9        1
    x11       R10       1
    x11       R11       1
    x11       R15       1
    x11       R27       1
    x11       R43       1
    x11       R75       1
    x12       OBJ       1
    x12       R4        1
    x12       R8        1
    x12       R12       1
    x12       R13       1
    x12       R14       1
    x12       R28       1
    x12       R44       1
    x12       R76       1
    x13       OBJ       1
    x13       R5        1
    x13       R9        1
    x13       R12       1
    x13       R13       1
    x13       R15       1
    x13       R29       1
    x13       R45       1
    x13       R77       1
    x14       OBJ       1
    x14       R6        1
    x14       R10       1
    x14       R12       1
    x14       R14       1
    x14       R15       1
    x14       R30       1
    x14       R46       1
    x14       R78       1
    x15       OBJ       1
    x15       R7        1
    x15       R11       1
    x15       R13       1
    x15       R14       1
    x15       R15       1
    x15       R31       1
    x15       R47       1
    x15       R79       1
    x16       OBJ       1
    x16       R0        1
    x16       R16       1
    x16       R17       1
    x16       R18       1
    x16       R20       1
    x16       R24       1
    x16       R48       1
    x16       R80       1
    x17       OBJ       1
    x17       R1        1
    x17       R16       1
    x17       R17       1
    x17       R19       1
    x17       R21       1
    x17       R25       1
    x17       R49       1
    x17       R81       1
    x18       OBJ       1
    x18       R2        1
    x18       R16       1
    x18       R18       1
    x18       R19       1
    x18       R22       1
    x18       R26       1
    x18       R50       1
    x18       R82       1
    x19       OBJ       1
    x19       R3        1
    x19       R17       1
    x19       R18       1
    x19       R19       1
    x19       R23       1
    x19       R27       1
    x19       R51       1
    x19       R83       1
    x20       OBJ       1
    x20       R4        1
    x20       R16       1
    x20       R20       1
    x20       R21       1
    x20       R22       1
    x20       R28       1
    x20       R52       1
    x20       R84       1
    x21       OBJ       1
    x21       R5        1
    x21       R17       1
    x21       R20       1
    x21       R21       1
    x21       R23       1
    x21       R29       1
    x21       R53       1
    x21       R85       1
    x22       OBJ       1
    x22       R6        1
    x22       R18       1
    x22       R20       1
    x22       R22       1
    x22       R23       1
    x22       R30       1
    x22       R54       1
    x22       R86       1
    x23       OBJ       1
    x23       R7        1
    x23       R19       1
    x23       R21       1
    x23       R22       1
    x23       R23       1
    x23       R31       1
    x23       R55       1
    x23       R87       1
    x24       OBJ       1
    x24       R8        1
    x24       R16       1
    x24       R24       1
    x24       R25       1
    x24       R26       1
    x24       R28       1
    x24       R56       1
    x24       R88       1
    x25       OBJ       1
    x25       R9        1
    x25       R17       1
    x25       R24       1
    x25       R25       1
    x25       R27       1
    x25       R29       1
    x25       R57       1
    x25       R89       1
    x26       OBJ       1
    x26       R10       1
    x26       R18       1
    x26       R24       1
    x26       R26       1
    x26       R27       1
    x26       R30       1
    x26       R58       1
    x26       R90       1
    x27       OBJ       1
    x27       R11       1
    x27       R19       1
    x27       R25       1
    x27       R26       1
    x27       R27       1
    x27       R31       1
    x27       R59       1
    x27       R91       1
    x28       OBJ       1
    x28       R12       1
    x28       R20       1
    x28       R24       1
    x28       R28       1
    x28       R29       1
    x28       R30       1
    x28       R60       1
    x28       R92       1
    x29       OBJ       1
    x29       R13       1
    x29       R21       1
    x29       R25       1
    x29       R28       1
    x29       R29       1
    x29       R31       1
    x29       R61       1
    x29       R93       1
    x30       OBJ       1
    x30       R14       1
    x30       R22       1
    x30       R26       1
    x30       R28       1
    x30       R30       1
    x30       R31       1
    x30       R62       1
    x30       R94       1
    x31       OBJ       1
    x31       R15       1
    x31       R23       1
    x31       R27       1
    x31       R29       1
    x31       R30       1
    x31       R31       1
    x31       R63       1
    x31       R95       1
    x32       OBJ       1
    x32       R0        1
    x32       R32       1
    x32       R33       1
    x32       R34       1
    x32       R36       1
    x32       R40       1
    x32       R48       1
    x32       R96       1
    x33       OBJ       1
    x33       R1        1
    x33       R32       1
    x33       R33       1
    x33       R35       1
    x33       R37       1
    x33       R41       1
    x33       R49       1
    x33       R97       1
    x34       OBJ       1
    x34       R2        1
    x34       R32       1
    x34       R34       1
    x34       R35       1
    x34       R38       1
    x34       R42       1
    x34       R50       1
    x34       R98       1
    x35       OBJ       1
    x35       R3        1
    x35       R33       1
    x35       R34       1
    x35       R35       1
    x35       R39       1
    x35       R43       1
    x35       R51       1
    x35       R99       1
    x36       OBJ       1
    x36       R4        1
    x36       R32       1
    x36       R36       1
    x36       R37       1
    x36       R38       1
    x36       R44       1
    x36       R52       1
    x36       R100      1
    x37       OBJ       1
    x37       R5        1
    x37       R33       1
    x37       R36       1
    x37       R37       1
    x37       R39       1
    x37       R45       1
    x37       R53       1
    x37       R101      1
    x38       OBJ       1
    x38       R6        1
    x38       R34       1
    x38       R36       1
    x38       R38       1
    x38       R39       1
    x38       R46       1
    x38       R54       1
    x38       R102      1
    x39       OBJ       1
    x39       R7        1
    x39       R35       1
    x39       R37       1
    x39       R38       1
    x39       R39       1
    x39       R47       1
    x39       R55       1
    x39       R103      1
    x40       OBJ       1
    x40       R8        1
    x40       R32       1
    x40       R40       1
    x40       R41       1
    x40       R42       1
    x40       R44       1
    x40       R56       1
    x40       R104      1
    x41       OBJ       1
    x41       R9        1
    x41       R33       1
    x41       R40       1
    x41       R41       1
    x41       R43       1
    x41       R45       1
    x41       R57       1
    x41       R105      1
    x42       OBJ       1
    x42       R10       1
    x42       R34       1
    x42       R40       1
    x42       R42       1
    x42       R43       1
    x42       R46       1
    x42       R58       1
    x42       R106      1
    x43       OBJ       1
    x43       R11       1
    x43       R35       1
    x43       R41       1
    x43       R42       1
    x43       R43       1
    x43       R47       1
    x43       R59       1
    x43       R107      1
    x44       OBJ       1
    x44       R12       1
    x44       R36       1
    x44       R40       1
    x44       R44       1
    x44       R45       1
    x44       R46       1
    x44       R60       1
    x44       R108      1
    x45       OBJ       1
    x45       R13       1
    x45       R37       1
    x45       R41       1
    x45       R44       1
    x45       R45       1
    x45       R47       1
    x45       R61       1
    x45       R109      1
    x46       OBJ       1
    x46       R14       1
    x46       R38       1
    x46       R42       1
    x46       R44       1
    x46       R46       1
    x46       R47       1
    x46       R62       1
    x46       R110      1
    x47       OBJ       1
    x47       R15       1
    x47       R39       1
    x47       R43       1
    x47       R45       1
    x47       R46       1
    x47       R47       1
    x47       R63       1
    x47       R111      1
    x48       OBJ       1
    x48       R16       1
    x48       R32       1
    x48       R48       1
    x48       R49       1
    x48       R50       1
    x48       R52       1
    x48       R56       1
    x48       R112      1
    x49       OBJ       1
    x49       R17       1
    x49       R33       1
    x49       R48       1
    x49       R49       1
    x49       R51       1
    x49       R53       1
    x49       R57       1
    x49       R113      1
    x50       OBJ       1
    x50       R18       1
    x50       R34       1
    x50       R48       1
    x50       R50       1
    x50       R51       1
    x50       R54       1
    x50       R58       1
    x50       R114      1
    x51       OBJ       1
    x51       R19       1
    x51       R35       1
    x51       R49       1
    x51       R50       1
    x51       R51       1
    x51       R55       1
    x51       R59       1
    x51       R115      1
    x52       OBJ       1
    x52       R20       1
    x52       R36       1
    x52       R48       1
    x52       R52       1
    x52       R53       1
    x52       R54       1
    x52       R60       1
    x52       R116      1
    x53       OBJ       1
    x53       R21       1
    x53       R37       1
    x53       R49       1
    x53       R52       1
    x53       R53       1
    x53       R55       1
    x53       R61       1
    x53       R117      1
    x54       OBJ       1
    x54       R22       1
    x54       R38       1
    x54       R50       1
    x54       R52       1
    x54       R54       1
    x54       R55       1
    x54       R62       1
    x54       R118      1
    x55       OBJ       1
    x55       R23       1
    x55       R39       1
    x55       R51       1
    x55       R53       1
    x55       R54       1
    x55       R55       1
    x55       R63       1
    x55       R119      1
    x56       OBJ       1
    x56       R24       1
    x56       R40       1
    x56       R48       1
    x56       R56       1
    x56       R57       1
    x56       R58       1
    x56       R60       1
    x56       R120      1
    x57       OBJ       1
    x57       R25       1
    x57       R41       1
    x57       R49       1
    x57       R56       1
    x57       R57       1
    x57       R59       1
    x57       R61       1
    x57       R121      1
    x58       OBJ       1
    x58       R26       1
    x58       R42       1
    x58       R50       1
    x58       R56       1
    x58       R58       1
    x58       R59       1
    x58       R62       1
    x58       R122      1
    x59       OBJ       1
    x59       R27       1
    x59       R43       1
    x59       R51       1
    x59       R57       1
    x59       R58       1
    x59       R59       1
    x59       R63       1
    x59       R123      1
    x60       OBJ       1
    x60       R28       1
    x60       R44       1
    x60       R52       1
    x60       R56       1
    x60       R60       1
    x60       R61       1
    x60       R62       1
    x60       R124      1
    x61       OBJ       1
    x61       R29       1
    x61       R45       1
    x61       R53       1
    x61       R57       1
    x61       R60       1
    x61       R61       1
    x61       R63       1
    x61       R125      1
    x62       OBJ       1
    x62       R30       1
    x62       R46       1
    x62       R54       1
    x62       R58       1
    x62       R60       1
    x62       R62       1
    x62       R63       1
    x62       R126      1
    x63       OBJ       1
    x63       R31       1
    x63       R47       1
    x63       R55       1
    x63       R59       1
    x63       R61       1
    x63       R62       1
    x63       R63       1
    x63       R127      1
    x64       OBJ       1
    x64       R0        1
    x64       R64       1
    x64       R65       1
    x64       R66       1
    x64       R68       1
    x64       R72       1
    x64       R80       1
    x64       R96       1
    x65       OBJ       1
    x65       R1        1
    x65       R64       1
    x65       R65       1
    x65       R67       1
    x65       R69       1
    x65       R73       1
    x65       R81       1
    x65       R97       1
    x66       OBJ       1
    x66       R2        1
    x66       R64       1
    x66       R66       1
    x66       R67       1
    x66       R70       1
    x66       R74       1
    x66       R82       1
    x66       R98       1
    x67       OBJ       1
    x67       R3        1
    x67       R65       1
    x67       R66       1
    x67       R67       1
    x67       R71       1
    x67       R75       1
    x67       R83       1
    x67       R99       1
    x68       OBJ       1
    x68       R4        1
    x68       R64       1
    x68       R68       1
    x68       R69       1
    x68       R70       1
    x68       R76       1
    x68       R84       1
    x68       R100      1
    x69       OBJ       1
    x69       R5        1
    x69       R65       1
    x69       R68       1
    x69       R69       1
    x69       R71       1
    x69       R77       1
    x69       R85       1
    x69       R101      1
    x70       OBJ       1
    x70       R6        1
    x70       R66       1
    x70       R68       1
    x70       R70       1
    x70       R71       1
    x70       R78       1
    x70       R86       1
    x70       R102      1
    x71       OBJ       1
    x71       R7        1
    x71       R67       1
    x71       R69       1
    x71       R70       1
    x71       R71       1
    x71       R79       1
    x71       R87       1
    x71       R103      1
    x72       OBJ       1
    x72       R8        1
    x72       R64       1
    x72       R72       1
    x72       R73       1
    x72       R74       1
    x72       R76       1
    x72       R88       1
    x72       R104      1
    x73       OBJ       1
    x73       R9        1
    x73       R65       1
    x73       R72       1
    x73       R73       1
    x73       R75       1
    x73       R77       1
    x73       R89       1
    x73       R105      1
    x74       OBJ       1
    x74       R10       1
    x74       R66       1
    x74       R72       1
    x74       R74       1
    x74       R75       1
    x74       R78       1
    x74       R90       1
    x74       R106      1
    x75       OBJ       1
    x75       R11       1
    x75       R67       1
    x75       R73       1
    x75       R74       1
    x75       R75       1
    x75       R79       1
    x75       R91       1
    x75       R107      1
    x76       OBJ       1
    x76       R12       1
    x76       R68       1
    x76       R72       1
    x76       R76       1
    x76       R77       1
    x76       R78       1
    x76       R92       1
    x76       R108      1
    x77       OBJ       1
    x77       R13       1
    x77       R69       1
    x77       R73       1
    x77       R76       1
    x77       R77       1
    x77       R79       1
    x77       R93       1
    x77       R109      1
    x78       OBJ       1
    x78       R14       1
    x78       R70       1
    x78       R74       1
    x78       R76       1
    x78       R78       1
    x78       R79       1
    x78       R94       1
    x78       R110      1
    x79       OBJ       1
    x79       R15       1
    x79       R71       1
    x79       R75       1
    x79       R77       1
    x79       R78       1
    x79       R79       1
    x79       R95       1
    x79       R111      1
    x80       OBJ       1
    x80       R16       1
    x80       R64       1
    x80       R80       1
    x80       R81       1
    x80       R82       1
    x80       R84       1
    x80       R88       1
    x80       R112      1
    x81       OBJ       1
    x81       R17       1
    x81       R65       1
    x81       R80       1
    x81       R81       1
    x81       R83       1
    x81       R85       1
    x81       R89       1
    x81       R113      1
    x82       OBJ       1
    x82       R18       1
    x82       R66       1
    x82       R80       1
    x82       R82       1
    x82       R83       1
    x82       R86       1
    x82       R90       1
    x82       R114      1
    x83       OBJ       1
    x83       R19       1
    x83       R67       1
    x83       R81       1
    x83       R82       1
    x83       R83       1
    x83       R87       1
    x83       R91       1
    x83       R115      1
    x84       OBJ       1
    x84       R20       1
    x84       R68       1
    x84       R80       1
    x84       R84       1
    x84       R85       1
    x84       R86       1
    x84       R92       1
    x84       R116      1
    x85       OBJ       1
    x85       R21       1
    x85       R69       1
    x85       R81       1
    x85       R84       1
    x85       R85       1
    x85       R87       1
    x85       R93       1
    x85       R117      1
    x86       OBJ       1
    x86       R22       1
    x86       R70       1
    x86       R82       1
    x86       R84       1
    x86       R86       1
    x86       R87       1
    x86       R94       1
    x86       R118      1
    x87       OBJ       1
    x87       R23       1
    x87       R71       1
    x87       R83       1
    x87       R85       1
    x87       R86       1
    x87       R87       1
    x87       R95       1
    x87       R119      1
    x88       OBJ       1
    x88       R24       1
    x88       R72       1
    x88       R80       1
    x88       R88       1
    x88       R89       1
    x88       R90       1
    x88       R92       1
    x88       R120      1
    x89       OBJ       1
    x89       R25       1
    x89       R73       1
    x89       R81       1
    x89       R88       1
    x89       R89       1
    x89       R91       1
    x89       R93       1
    x89       R121      1
    x90       OBJ       1
    x90       R26       1
    x90       R74       1
    x90       R82       1
    x90       R88       1
    x90       R90       1
    x90       R91       1
    x90       R94       1
    x90       R122      1
    x91       OBJ       1
    x91       R27       1
    x91       R75       1
    x91       R83       1
    x91       R89       1
    x91       R90       1
    x91       R91       1
    x91       R95       1
    x91       R123      1
    x92       OBJ       1
    x92       R28       1
    x92       R76       1
    x92       R84       1
    x92       R88       1
    x92       R92       1
    x92       R93       1
    x92       R94       1
    x92       R124      1
    x93       OBJ       1
    x93       R29       1
    x93       R77       1
    x93       R85       1
    x93       R89       1
    x93       R92       1
    x93       R93       1
    x93       R95       1
    x93       R125      1
    x94       OBJ       1
    x94       R30       1
    x94       R78       1
    x94       R86       1
    x94       R90       1
    x94       R92       1
    x94       R94       1
    x94       R95       1
    x94       R126      1
    x95       OBJ       1
    x95       R31       1
    x95       R79       1
    x95       R87       1
    x95       R91       1
    x95       R93       1
    x95       R94       1
    x95       R95       1
    x95       R127      1
    x96       OBJ       1
    x96       R32       1
    x96       R64       1
    x96       R96       1
    x96       R97       1
    x96       R98       1
    x96       R100      1
    x96       R104      1
    x96       R112      1
    x97       OBJ       1
    x97       R33       1
    x97       R65       1
    x97       R96       1
    x97       R97       1
    x97       R99       1
    x97       R101      1
    x97       R105      1
    x97       R113      1
    x98       OBJ       1
    x98       R34       1
    x98       R66       1
    x98       R96       1
    x98       R98       1
    x98       R99       1
    x98       R102      1
    x98       R106      1
    x98       R114      1
    x99       OBJ       1
    x99       R35       1
    x99       R67       1
    x99       R97       1
    x99       R98       1
    x99       R99       1
    x99       R103      1
    x99       R107      1
    x99       R115      1
    x100      OBJ       1
    x100      R36       1
    x100      R68       1
    x100      R96       1
    x100      R100      1
    x100      R101      1
    x100      R102      1
    x100      R108      1
    x100      R116      1
    x101      OBJ       1
    x101      R37       1
    x101      R69       1
    x101      R97       1
    x101      R100      1
    x101      R101      1
    x101      R103      1
    x101      R109      1
    x101      R117      1
    x102      OBJ       1
    x102      R38       1
    x102      R70       1
    x102      R98       1
    x102      R100      1
    x102      R102      1
    x102      R103      1
    x102      R110      1
    x102      R118      1
    x103      OBJ       1
    x103      R39       1
    x103      R71       1
    x103      R99       1
    x103      R101      1
    x103      R102      1
    x103      R103      1
    x103      R111      1
    x103      R119      1
    x104      OBJ       1
    x104      R40       1
    x104      R72       1
    x104      R96       1
    x104      R104      1
    x104      R105      1
    x104      R106      1
    x104      R108      1
    x104      R120      1
    x105      OBJ       1
    x105      R41       1
    x105      R73       1
    x105      R97       1
    x105      R104      1
    x105      R105      1
    x105      R107      1
    x105      R109      1
    x105      R121      1
    x106      OBJ       1
    x106      R42       1
    x106      R74       1
    x106      R98       1
    x106      R104      1
    x106      R106      1
    x106      R107      1
    x106      R110      1
    x106      R122      1
    x107      OBJ       1
    x107      R43       1
    x107      R75       1
    x107      R99       1
    x107      R105      1
    x107      R106      1
    x107      R107      1
    x107      R111      1
    x107      R123      1
    x108      OBJ       1
    x108      R44       1
    x108      R76       1
    x108      R100      1
    x108      R104      1
    x108      R108      1
    x108      R109      1
    x108      R110      1
    x108      R124      1
    x109      OBJ       1
    x109      R45       1
    x109      R77       1
    x109      R101      1
    x109      R105      1
    x109      R108      1
    x109      R109      1
    x109      R111      1
    x109      R125      1
    x110      OBJ       1
    x110      R46       1
    x110      R78       1
    x110      R102      1
    x110      R106      1
    x110      R108      1
    x110      R110      1
    x110      R111      1
    x110      R126      1
    x111      OBJ       1
    x111      R47       1
    x111      R79       1
    x111      R103      1
    x111      R107      1
    x111      R109      1
    x111      R110      1
    x111      R111      1
    x111      R127      1
    x112      OBJ       1
    x112      R48       1
    x112      R80       1
    x112      R96       1
    x112      R112      1
    x112      R113      1
    x112      R114      1
    x112      R116      1
    x112      R120      1
    x113      OBJ       1
    x113      R49       1
    x113      R81       1
    x113      R97       1
    x113      R112      1
    x113      R113      1
    x113      R115      1
    x113      R117      1
    x113      R121      1
    x114      OBJ       1
    x114      R50       1
    x114      R82       1
    x114      R98       1
    x114      R112      1
    x114      R114      1
    x114      R115      1
    x114      R118      1
    x114      R122      1
    x115      OBJ       1
    x115      R51       1
    x115      R83       1
    x115      R99       1
    x115      R113      1
    x115      R114      1
    x115      R115      1
    x115      R119      1
    x115      R123      1
    x116      OBJ       1
    x116      R52       1
    x116      R84       1
    x116      R100      1
    x116      R112      1
    x116      R116      1
    x116      R117      1
    x116      R118      1
    x116      R124      1
    x117      OBJ       1
    x117      R53       1
    x117      R85       1
    x117      R101      1
    x117      R113      1
    x117      R116      1
    x117      R117      1
    x117      R119      1
    x117      R125      1
    x118      OBJ       1
    x118      R54       1
    x118      R86       1
    x118      R102      1
    x118      R114      1
    x118      R116      1
    x118      R118      1
    x118      R119      1
    x118      R126      1
    x119      OBJ       1
    x119      R55       1
    x119      R87       1
    x119      R103      1
    x119      R115      1
    x119      R117      1
    x119      R118      1
    x119      R119      1
    x119      R127      1
    x120      OBJ       1
    x120      R56       1
    x120      R88       1
    x120      R104      1
    x120      R112      1
    x120      R120      1
    x120      R121      1
    x120      R122      1
    x120      R124      1
    x121      OBJ       1
    x121      R57       1
    x121      R89       1
    x121      R105      1
    x121      R113      1
    x121      R120      1
    x121      R121      1
    x121      R123      1
    x121      R125      1
    x122      OBJ       1
    x122      R58       1
    x122      R90       1
    x122      R106      1
    x122      R114      1
    x122      R120      1
    x122      R122      1
    x122      R123      1
    x122      R126      1
    x123      OBJ       1
    x123      R59       1
    x123      R91       1
    x123      R107      1
    x123      R115      1
    x123      R121      1
    x123      R122      1
    x123      R123      1
    x123      R127      1
    x124      OBJ       1
    x124      R60       1
    x124      R92       1
    x124      R108      1
    x124      R116      1
    x124      R120      1
    x124      R124      1
    x124      R125      1
    x124      R126      1
    x125      OBJ       1
    x125      R61       1
    x125      R93       1
    x125      R109      1
    x125      R117      1
    x125      R121      1
    x125      R124      1
    x125      R125      1
    x125      R127      1
    x126      OBJ       1
    x126      R62       1
    x126      R94       1
    x126      R110      1
    x126      R118      1
    x126      R122      1
    x126      R124      1
    x126      R126      1
    x126      R127      1
    x127      OBJ       1
    x127      R63       1
    x127      R95       1
    x127      R111      1
    x127      R119      1
    x127      R123      1
    x127      R125      1
    x127      R126      1
    x127      R127      1
RHS
    RHS1      R0        1
    RHS1      R1        1
    RHS1      R2        1
    RHS1      R3        1
    RHS1      R4        1
    RHS1      R5        1
    RHS1      R6        1
    RHS1      R7        1
    RHS1      R8        1
    RHS1      R9        1
    RHS1      R10       1
    RHS1      R11       1
    RHS1      R12       1
    RHS1      R13       1
    RHS1      R14       1
    RHS1      R15       1
    RHS1      R16       1
    RHS1      R17       1
    RHS1      R18       1
    RHS1      R19       1
    RHS1      R20       1
    RHS1      R21       1
    RHS1      R22       1
    RHS1      R23       1
    RHS1      R24       1
    RHS1      R25       1
    RHS1      R26       1
    RHS1      R27       1
    RHS1      R28       1
    RHS1      R29       1
    RHS1      R30       1
    RHS1      R31       1
    RHS1      R32       1
    RHS1      R33       1
    RHS1      R34       1
    RHS1      R35       1
    RHS1      R36       1
    RHS1      R37       1
    RHS1      R38       1
    RHS1      R39       1
    RHS1      R40       1
    RHS1      R41       1
    RHS1      R42       1
    RHS1      R43       1
    RHS1      R44       1
    RHS1      R45       1
    RHS1      R46       1
    RHS1      R47       1
    RHS1      R48       1
    RHS1      R49       1
    RHS1      R50       1
    RHS1      R51       1
    RHS1      R52       1
    RHS1      R53       1
    RHS1      R54       1
    RHS1      R55       1
    RHS1      R56       1
    RHS1      R57       1
    RHS1      R58       1
    RHS1      R59       1
    RHS1      R60       1
    RHS1      R61       1
    RHS1      R62       1
    RHS1      R63       1
    RHS1      R64       1
    RHS1      R65       1
    RHS1      R66       1
    RHS1      R67       1
    RHS1      R68       1
    RHS1      R69       1
    RHS1      R70       1
    RHS1      R71       1
    RHS1      R72       1
    RHS1      R73       1
    RHS1      R74       1
    RHS1      R75       1
    RHS1      R76       1
    RHS1      R77       1
    RHS1      R78       1
    RHS1      R79       1
    RHS1      R80       1
    RHS1      R81       1
    RHS1      R82       1
    RHS1      R83       1
    RHS1      R84       1
    RHS1      R85       1
    RHS1      R86       1
    RHS1      R87       1
    RHS1      R88       1
    RHS1      R89       1
    RHS1      R90       1
    RHS1      R91       1
    RHS1      R92       1
    RHS1      R93       1
    RHS1      R94       1
    RHS1      R95       1
    RHS1      R96       1
    RHS1      R97       1
    RHS1      R98       1
    RHS1      R99       1
    RHS1      R100      1
    RHS1      R101      1
    RHS1      R102      1
    RHS1      R103      1
    RHS1      R104      1
    RHS1      R105      1
    RHS1      R106      1
    RHS1      R107      1
    RHS1      R108      1
    RHS1      R109      1
    RHS1      R110      1
    RHS1      R111      1
    RHS1      R112      1
    RHS1      R113      1
    RHS1      R114      1
    RHS1      R115      1
    RHS1      R116      1
    RHS1      R117      1
    RHS1      R118      1
    RHS1      R119      1
    RHS1      R120      1
    RHS1      R121      1
    RHS1      R122      1
    RHS1      R123      1
    RHS1      R124      1
    RHS1      R125      1
    RHS1      R126      1
    RHS1      R127      1
BOUNDS
 UP BND1      x0        1
 UP BND1      x1        1
 UP BND1      x2        1
 UP BND1      x3        1
 UP BND1      x4        1
 UP BND1      x5        1
 UP BND1      x6        1
 UP BND1      x7        1
 UP BND1      x8        1
 UP BND1      x9        1
 UP BND1      x10       1
 UP BND1      x11       1
 UP BND1      x12       1
 UP BND1      x13       1
 UP BND1      x14       1
 UP BND1      x15       1
 UP BND1      x16       1
 UP BND1      x17       1
 UP BND1      x18       1
 UP BND1      x19       1
 UP BND1      x20       1
 UP BND1      x21       1
 UP BND1      x22       1
 UP BND1      x23       1
 UP BND1      x24       1
 UP BND1      x25       1
 UP BND1      x26       1
 UP BND1      x27       1
 UP BND1      x28       1
 UP BND1      x29       1
 UP BND1      x30       1
 UP BND1      x31       1
 UP BND1      x32       1
 UP BND1      x33       1
 UP BND1      x34       1
 UP BND1      x35       1
 UP BND1      x36       1
 UP BND1      x37       1
 UP BND1      x38       1
 UP BND1      x39       1
 UP BND1      x40       1
 UP BND1      x41       1
 UP BND1      x42       1
 UP BND1      x43       1
 UP BND1      x44       1
 UP BND1      x45       1
 UP BND1      x46       1
 UP BND1      x47       1
 UP BND1      x48       1
 UP BND1      x49       1
 UP BND1      x50       1
 UP BND1      x51       1
 UP BND1      x52       1
 UP BND1      x53       1
 UP BND1      x54       1
 UP BND1      x55       1
 UP BND1      x56       1
 UP BND1      x57       1
 UP BND1      x58       1
 UP BND1      x59       1
 UP BND1      x60       1
 UP BND1      x61       1
 UP BND1      x62       1
 UP BND1      x63       1
 UP BND1      x64       1
 UP BND1      x65       1
 UP BND1      x66       1
 UP BND1      x67       1
 UP BND1      x68       1
 UP BND1      x69       1
 UP BND1      x70       1
 UP BND1      x71       1
 UP BND1      x72       1
 UP BND1      x73       1
 UP BND1      x74       1
 UP BND1      x75       1
 UP BND1      x76       1
 UP BND1      x77       1
 UP BND1      x78       1
 UP BND1      x79       1
 UP BND1      x80       1
 UP BND1      x81       1
 UP BND1      x82       1
 UP BND1      x83       1
 UP BND1      x84       1
 UP BND1      x85       1
 UP BND1      x86       1
 UP BND1      x87       1
 UP BND1      x88       1
 UP BND1      x89       1
 UP BND1      x90       1
 UP BND1      x91       1
 UP BND1      x92       1
 UP BND1      x93       1
 UP BND1      x94       1
 UP BND1      x95       1
 UP BND1      x96       1
 UP BND1      x97       1
 UP BND1      x98       1
 UP BND1      x99       1
 UP BND1      x100      1
 UP BND1      x101      1
 UP BND1      x102      1
 UP BND1      x103      1
 UP BND1      x104      1
 UP BND1      x105      1
 UP BND1      x106      1
 UP BND1      x107      1
 UP BND1      x108      1
 UP BND1      x109      1
 UP BND1      x110      1
 UP BND1      x111      1
 UP BND1      x112      1
 UP BND1      x113      1
 UP BND1      x114      1
 UP BND1      x115      1
 UP BND1      x116      1
 UP BND1      x117      1
 UP BND1      x118      1
 UP BND1      x119      1
 UP BND1      x120      1
 UP BND1      x121      1
 UP BND1      x122      1
 UP BND1      x123      1
 UP BND1      x124      1
 UP BND1      x125      1
 UP BND1      x126      1
 UP BND1      x127      1
ENDATA
